7
-1 1 CFH4O; translated to CP2K cell center; canonical atom order
F         22.2495327610        19.8383653157        19.9909354945
C         20.8398930444        20.0203064951        20.0031075229
H         20.3517837953        19.1286555954        19.6351845256
H         20.5224227020        20.2131804757        21.0195830185
H         20.6002239231        20.8622930552        19.3654544345
O         18.1810331534        19.8416795526        19.9940195022
H         17.2551106208        20.0955195104        19.9917155017
