7
-1 1 CFH4O
C                    -0.703486368787    -0.157457964935    -0.000016060528
O                     0.117288122874     0.960081223177     0.000071936350
H                    -1.757411576874     0.151828122676    -0.008621090528
H                    -0.546341904306    -0.803761671884    -0.878082848962
H                    -0.558666441543    -0.795453589676     0.886379183435
H                     1.105091580133     0.603220516795     0.000260937283
F                     2.343526593795     0.041543358555     0.000007937658