7
-1 1 CFH4O; translated to CP2K cell center; canonical atom order
F         22.3435265930        20.0415433593        20.0000079384
C         19.2965136305        19.8425420358        19.9999839402
H         18.2425884224        20.1518281234        19.9913789102
H         19.4536580949        19.1962383289        19.1219171518
H         19.4413335577        19.2045464111        20.8863791842
O         20.1172881221        20.9600812239        20.0000719371
H         21.1050915794        20.6032205176        20.0002609380
