8
NH3 dimer cation, N-N distance=5.00 A
N         20.0000000000        20.0000000000        17.5000000000
N         20.0000000000        20.0000000000        22.5000000000
H         20.8429729691        20.4866906706        17.2243265815
H         20.0000000000        19.0266186588        17.2243265815
H         19.1570270309        20.4866906706        17.2243265815
H         20.8429729691        19.5133093294        22.7756734185
H         20.0000000000        20.9733813412        22.7756734185
H         19.1570270309        19.5133093294        22.7756734185
