8
NH3 dimer cation, N-N distance=2.75 A
N         20.0000000000        20.0000000000        18.6250000000
N         20.0000000000        20.0000000000        21.3750000000
H         20.8429729691        20.4866906706        18.3493265815
H         20.0000000000        19.0266186588        18.3493265815
H         19.1570270309        20.4866906706        18.3493265815
H         20.8429729691        19.5133093294        21.6506734185
H         20.0000000000        20.9733813412        21.6506734185
H         19.1570270309        19.5133093294        21.6506734185
