8
NH3 dimer cation, N-N distance=8.50 A
N         20.0000000000        20.0000000000        15.7500000000
N         20.0000000000        20.0000000000        24.2500000000
H         20.8429729691        20.4866906706        15.4743265815
H         20.0000000000        19.0266186588        15.4743265815
H         19.1570270309        20.4866906706        15.4743265815
H         20.8429729691        19.5133093294        24.5256734185
H         20.0000000000        20.9733813412        24.5256734185
H         19.1570270309        19.5133093294        24.5256734185
