7
-1 1 CFH4O
F                     2.249532761775    -0.161634686574    -0.009064503988
C                     0.839893045145     0.020306492821     0.003107524377
H                     0.351783796098    -0.871344406905    -0.364815472842
H                     0.522422702793     0.213180473389     1.019583020017
H                     0.600223923837     0.862293052971    -0.634545563955
O                    -1.818966845879    -0.158320449704    -0.005980496246
H                    -2.744889378477     0.095519508128    -0.008284496779