8
NH3 dimer cation, N-N distance=7.00 A
N         20.0000000000        20.0000000000        16.5000000000
N         20.0000000000        20.0000000000        23.5000000000
H         20.8429729691        20.4866906706        16.2243265815
H         20.0000000000        19.0266186588        16.2243265815
H         19.1570270309        20.4866906706        16.2243265815
H         20.8429729691        19.5133093294        23.7756734185
H         20.0000000000        20.9733813412        23.7756734185
H         19.1570270309        19.5133093294        23.7756734185
