8
NH3 dimer cation, N-N distance=6.75 A
N         20.0000000000        20.0000000000        16.6250000000
N         20.0000000000        20.0000000000        23.3750000000
H         20.8429729691        20.4866906706        16.3493265815
H         20.0000000000        19.0266186588        16.3493265815
H         19.1570270309        20.4866906706        16.3493265815
H         20.8429729691        19.5133093294        23.6506734185
H         20.0000000000        20.9733813412        23.6506734185
H         19.1570270309        19.5133093294        23.6506734185
