7
-1 1 CFH4O; translated to CP2K cell center; canonical atom order
F         22.1377024895        20.0825877952        19.9998005803
C         20.3779421966        20.1063527733        20.0001975797
H         20.3279921543        21.1753147635        19.9881795736
H         20.3242481197        19.5677537741        19.0769853128
H         20.3245711294        19.5883038419        20.9350587938
O         18.3942817341        20.1990330817        19.9998105818
H         18.1132621764        19.2806539702        19.9999675781
