7
-1 1 CFH4O
F                     2.137702487984     0.082587792960    -0.000199420432
C                     0.377942195104     0.106352771067     0.000197578895
H                     0.327992152752     1.175314761266    -0.011820427150
H                     0.324248118151    -0.432246228168    -0.923014687950
H                     0.324571127920    -0.411696160369     0.935058793015
O                    -1.605718267384     0.199033079415    -0.000189418983
H                    -1.886737825110    -0.719346032045    -0.000032422688